# Solution for model GasLib-40
# Objective value = 1.0674481401929821e+01
loadshed[innode_1] 0
loadshed[innode_2] 0
loadshed[innode_3] 0
loadshed[innode_4] 0
loadshed[innode_5] 0
loadshed[innode_6] 0
loadshed[innode_7] 0
loadshed[innode_8] 0
loadshed[source_1] -3.4978977361529839e-01
loadshed[source_2] 1.9526579298183355e-02
loadshed[source_3] 3.9778462290806460e-01
loadshed[sink_1] 0
loadshed[sink_2] 0
loadshed[sink_3] 0
loadshed[sink_4] 0
loadshed[sink_5] 0
loadshed[sink_6] 0
loadshed[sink_7] 0
loadshed[sink_8] 0
loadshed[sink_9] 0
loadshed[sink_10] 0
loadshed[sink_11] 0
loadshed[sink_12] 6.5270714304793809e-01
loadshed[sink_13] 0
loadshed[sink_14] 0
loadshed[sink_15] 0
loadshed[sink_16] 0
loadshed[sink_17] 0
loadshed[sink_18] 0
loadshed[sink_19] 0
loadshed[sink_20] 0
loadshed[sink_21] 0
loadshed[sink_22] 0
loadshed[sink_23] 0
loadshed[sink_24] 0
loadshed[sink_25] 0
loadshed[sink_26] 0
loadshed[sink_27] 0
loadshed[sink_28] 0
loadshed[sink_29] 0
flow[source_1,sink_3] 2.1338864025244629e+02
flow[innode_1,sink_16] 1.6354166666666970e+01
flow[innode_6,sink_13] 1.9274770420166227e+01
flow[sink_13,sink_14] 2.9206037534995613e+00
flow[sink_14,sink_10] -1.3433562913167107e+01
flow[sink_25,sink_26] 1.7146291614636465e+02
flow[sink_26,sink_9] 1.2172262864952346e+02
flow[sink_9,sink_18] 1.0536846198285679e+02
flow[sink_26,sink_4] 3.3386120830174555e+01
flow[sink_4,sink_20] -1.7175561332774446e+01
flow[sink_18,sink_6] 8.9014295316190115e+01
flow[sink_25,innode_8] -1.8068030691910994e+02
flow[sink_6,sink_7] 3.9951795316189873e+01
flow[sink_6,sink_22] 3.2708333333333641e+01
flow[sink_7,sink_24] 3.8388018598070182e+01
flow[sink_22,sink_1] 1.6354166666666970e+01
flow[sink_24,sink_21] 2.2033851931403515e+01
flow[sink_21,sink_12] 5.6796852647368459e+00
flow[sink_7,sink_5] -1.4790389948546832e+01
flow[sink_5,sink_17] -3.1144556615213560e+01
flow[sink_17,sink_4] -3.4207515496282333e+01
flow[sink_17,sink_8] -1.3291207785597596e+01
flow[sink_3,sink_23] 16.3541666666697
flow[sink_8,sink_20] -2.9645374452264264e+01
flow[sink_25,sink_20] 6.3175102451705328e+01
flow[sink_25,sink_15] -8.9586648765793441e+01
flow[sink_15,sink_29] -1.0594081543246011e+02
flow[sink_29,sink_28] 1.6354166666667879e+01
flow[sink_29,sink_2] 1.6354166666684250e+01
flow[sink_2,sink_15] 0
flow[sink_29,innode_7] -1.5500331543247816e+02
flow[innode_4,sink_19] 9.5204396246513255e+01
flow[sink_19,innode_3] 0
flow[innode_4,innode_5] 0
flow[sink_27,innode_5] 0
flow[sink_27,sink_19] -1.6354166666679703e+01
flow[sink_10,sink_11] 3.2708333333333641e+01
flow[sink_10,innode_2] -6.2496062913167634e+01
flow[sink_10,innode_3] 0
flow[innode_6,sink_25] -1.9274770420166227e+01
flow[sink_11,innode_1] 1.6354166666666970e+01
flow[sink_19,innode_2] 6.2496062913167634e+01
flow[source_3,innode_4] 9.5204396246513255e+01
flow[source_2,innode_7] 1.5500331543247816e+02
flow[sink_3,innode_8] 1.8068030691910994e+02
pressure[innode_1] 7.3701400976111586e+01
pressure[innode_2] 7.7156277325869510e+01
pressure[innode_3] 7.7156277325869510e+01
pressure[innode_4] 81.01325
pressure[innode_5] 81.01325
pressure[innode_6] 7.3329198878016271e+01
pressure[innode_7] 81.01325
pressure[innode_8] 8.0299973293051323e+01
pressure[source_1] 81.01325
pressure[source_2] 81.01325
pressure[source_3] 81.01325
pressure[sink_1] 4.5677183574000182e+01
pressure[sink_2] 7.6453249038508119e+01
pressure[sink_3] 8.0299973293051323e+01
pressure[sink_4] 57.0083685789279
pressure[sink_5] 5.3381025783943393e+01
pressure[sink_6] 4.7778261184387553e+01
pressure[sink_7] 4.7229818265363008e+01
pressure[sink_8] 56.202581931915
pressure[sink_9] 5.3967752906283771e+01
pressure[sink_10] 7.3853102283715131e+01
pressure[sink_11] 7.3701400976111586e+01
pressure[sink_12] 1.0132500000000002e+00
pressure[sink_13] 7.3222940289803262e+01
pressure[sink_14] 7.3217713620605949e+01
pressure[sink_15] 73.763781419717
pressure[sink_16] 72.6797511412939
pressure[sink_17] 5.5701070132455669e+01
pressure[sink_18] 50.1552078997164
pressure[sink_19] 7.7156277325869510e+01
pressure[sink_20] 5.8268447620301764e+01
pressure[sink_21] 3.0343928675787386e+00
pressure[sink_22] 4.6740952716355189e+01
pressure[sink_23] 8.0135255281391537e+01
pressure[sink_24] 3.2783973058290630e+00
pressure[sink_25] 7.3329198878016271e+01
pressure[sink_26] 6.1253166388414364e+01
pressure[sink_27] 7.6805147328726008e+01
pressure[sink_28] 76.5722362633546
pressure[sink_29] 7.6867518536971772e+01
interdiction[source_1,sink_3] 0
interdiction[innode_1,sink_16] 0
interdiction[innode_6,sink_13] 0
interdiction[sink_13,sink_14] 0
interdiction[sink_14,sink_10] 0
interdiction[sink_25,sink_26] 0
interdiction[sink_26,sink_9] 0
interdiction[sink_9,sink_18] 0
interdiction[sink_26,sink_4] 0
interdiction[sink_4,sink_20] 0
interdiction[sink_18,sink_6] 0
interdiction[sink_25,innode_8] 0
interdiction[sink_6,sink_7] 0
interdiction[sink_6,sink_22] 0
interdiction[sink_7,sink_24] 0
interdiction[sink_22,sink_1] 0
interdiction[sink_24,sink_21] 0
interdiction[sink_21,sink_12] 0
interdiction[sink_7,sink_5] 0
interdiction[sink_5,sink_17] 0
interdiction[sink_17,sink_4] 0
interdiction[sink_17,sink_8] 0
interdiction[sink_3,sink_23] 0
interdiction[sink_8,sink_20] 0
interdiction[sink_25,sink_20] 0
interdiction[sink_25,sink_15] 0
interdiction[sink_15,sink_29] 0
interdiction[sink_29,sink_28] 0
interdiction[sink_29,sink_2] 0
interdiction[sink_2,sink_15] 1
interdiction[sink_29,innode_7] 0
interdiction[innode_4,sink_19] 0
interdiction[sink_19,innode_3] 0
interdiction[innode_4,innode_5] 0
interdiction[sink_27,innode_5] 1
interdiction[sink_27,sink_19] 0
interdiction[sink_10,sink_11] 0
interdiction[sink_10,innode_2] 0
interdiction[sink_10,innode_3] 1
interdiction[innode_6,sink_25] 0
interdiction[sink_11,innode_1] 0
interdiction[sink_19,innode_2] 0
interdiction[source_3,innode_4] 0
interdiction[source_2,innode_7] 0
interdiction[sink_3,innode_8] 0
WCcheckFlow[source_1,sink_3] 39
WCcheckFlow[innode_1,sink_16] 1
WCcheckFlow[innode_6,sink_13] 13
WCcheckFlow[sink_13,sink_14] 12
WCcheckFlow[sink_14,sink_10] 11
WCcheckFlow[sink_25,sink_26] 15
WCcheckFlow[sink_26,sink_9] 12
WCcheckFlow[sink_9,sink_18] 11
WCcheckFlow[sink_26,sink_4] 2
WCcheckFlow[sink_4,sink_20] 1
WCcheckFlow[sink_18,sink_6] 10
WCcheckFlow[sink_25,innode_8] -36
WCcheckFlow[sink_6,sink_7] 7
WCcheckFlow[sink_6,sink_22] 2
WCcheckFlow[sink_7,sink_24] 3
WCcheckFlow[sink_22,sink_1] 1
WCcheckFlow[sink_24,sink_21] 2
WCcheckFlow[sink_21,sink_12] 1
WCcheckFlow[sink_7,sink_5] 3
WCcheckFlow[sink_5,sink_17] 2
WCcheckFlow[sink_17,sink_4] 0
WCcheckFlow[sink_17,sink_8] 1
WCcheckFlow[sink_3,sink_23] 1
WCcheckFlow[sink_8,sink_20] 0
WCcheckFlow[sink_25,sink_20] 0
WCcheckFlow[sink_25,sink_15] 6
WCcheckFlow[sink_15,sink_29] 5
WCcheckFlow[sink_29,sink_28] 1
WCcheckFlow[sink_29,sink_2] 1
WCcheckFlow[sink_2,sink_15] 0
WCcheckFlow[sink_29,innode_7] 2
WCcheckFlow[innode_4,sink_19] -3
WCcheckFlow[sink_19,innode_3] 1
WCcheckFlow[innode_4,innode_5] 1
WCcheckFlow[sink_27,innode_5] 0
WCcheckFlow[sink_27,sink_19] -1
WCcheckFlow[sink_10,sink_11] 3
WCcheckFlow[sink_10,innode_2] 7
WCcheckFlow[sink_10,innode_3] 0
WCcheckFlow[innode_6,sink_25] -14
WCcheckFlow[sink_11,innode_1] 2
WCcheckFlow[sink_19,innode_2] -6
WCcheckFlow[source_3,innode_4] -1
WCcheckFlow[source_2,innode_7] -1
WCcheckFlow[sink_3,innode_8] 37
